problems/csplib-prob065/opd-models/noch/O0/minion/model_1-small_bibd_13_26_06-solution000001.eprime-solution
language ESSENCE' 1.0

letting lambda be 1
letting opd_ExplicitR2_Occurrence be
        [[false, false, false, false, false, false, false, false, false, false, false, false, false, false, false,
          false, false, false, false, false, true, true, true, true, true, true;
              int(1..26)],
         [false, false, false, false, false, false, false, false, false, false, false, false, false, false, false, true,
          true, true, true, true, false, false, false, false, false, true;
              int(1..26)],
         [false, false, false, false, false, false, false, false, false, false, false, true, true, true, true, false,
          false, false, false, true, false, false, false, false, true, false;
              int(1..26)],
         [false, false, false, false, false, false, false, false, true, true, true, false, false, false, true, false,
          false, false, true, false, false, false, false, true, false, false;
              int(1..26)],
         [false, false, false, false, false, false, true, true, false, false, true, false, false, true, false, false,
          false, true, false, false, false, false, true, false, false, false;
              int(1..26)],
         [false, false, false, false, false, true, false, true, false, true, false, false, true, false, false, false,
          true, false, false, false, false, true, false, false, false, false;
              int(1..26)],
         [false, false, false, false, true, false, false, true, true, false, false, true, false, false, false, true,
          false, false, false, false, true, false, false, false, false, false;
              int(1..26)],
         [false, false, true, true, false, false, true, false, false, false, false, false, false, false, true, false,
          true, false, false, false, true, false, false, false, false, false;
              int(1..26)],
         [false, true, false, true, false, true, false, false, false, false, false, false, false, true, false, true,
          false, false, false, false, false, false, false, true, false, false;
              int(1..26)],
         [false, true, true, false, true, false, false, false, false, false, false, false, true, false, false, false,
          false, false, true, false, false, false, true, false, false, false;
              int(1..26)],
         [true, false, false, true, true, false, false, false, false, false, true, false, false, false, false, false,
          false, false, false, true, false, true, false, false, false, false;
              int(1..26)],
         [true, false, true, false, false, true, false, false, true, false, false, false, false, false, false, false,
          false, true, false, false, false, false, false, false, true, false;
              int(1..26)],
         [true, true, false, false, false, false, true, false, false, true, false, true, false, false, false, false,
          false, false, false, false, false, false, false, false, false, true;
              int(1..26)];
             int(1..13)]
