problems/csplib-prob065/opd-models/noch/O0/minion/model_1-small_bibd_13_26_06-solution000001.solution
language Essence 1.3

letting lambda be 1
letting opd be
        {{1, 2, 7, 10, 12, 26}, {1, 3, 6, 9, 18, 25}, {1, 4, 5, 11, 20, 22}, {2, 3, 5, 13, 19, 23},
         {2, 4, 6, 14, 16, 24}, {3, 4, 7, 15, 17, 21}, {5, 8, 9, 12, 16, 21}, {6, 8, 10, 13, 17, 22},
         {7, 8, 11, 14, 18, 23}, {9, 10, 11, 15, 19, 24}, {12, 13, 14, 15, 20, 25}, {16, 17, 18, 19, 20, 26},
         {21, 22, 23, 24, 25, 26}}
$ Visualisation for opd
$  1  2  7 10 12 26
$  1  3  6  9 18 25
$  1  4  5 11 20 22
$  2  3  5 13 19 23
$  2  4  6 14 16 24
$  3  4  7 15 17 21
$  5  8  9 12 16 21
$  6  8 10 13 17 22
$  7  8 11 14 18 23
$  9 10 11 15 19 24
$ 12 13 14 15 20 25
$ 16 17 18 19 20 26
$ 21 22 23 24 25 26

